# 97000
param k := 6;
param n := 60;
param s := 1;
set E :=  (0,20) (0,23) (1,26) (2,23) (3,31) (4,7) (4,55) (5,8) (5,41) (6,9) (6,10) (6,16) (6,23) (6,33) (7,32) (7,36) (8,48) (8,49) (9,35) (9,38) (9,58) (11,21) (11,59) (12,14) (12,26) (12,56) (13,43) (15,22) (16,19) (16,28) (16,51) (17,58) (18,22) (18,44) (18,48) (19,21) (19,34) (23,30) (23,47) (23,55) (24,41) (25,59) (26,40) (26,44) (26,50) (27,41) (29,40) (29,53) (31,39) (31,58) (33,46) (36,45) (37,38) (37,54) (42,47) (43,50) (48,58) (51,52) (51,57);